TYPE : Vertex Cover
DIMENSION: 26
EDGE_DATA_SECTION:
0 4
0 5
0 9
0 11
0 12
0 15
0 24
1 3
1 4
1 5
1 7
1 9
1 11
1 12
1 15
1 18
2 3
2 9
2 15
2 16
2 17
2 23
3 4
3 11
3 12
3 18
3 21
3 23
3 25
4 6
4 11
4 15
4 17
4 23
5 6
5 8
5 11
5 16
5 18
6 10
6 11
6 19
6 21
6 22
7 11
7 15
7 18
7 21
7 24
8 13
8 20
8 23
8 25
9 12
9 14
10 22
10 23
11 14
11 15
11 16
11 23
11 24
11 25
12 21
12 25
13 14
13 20
14 15
14 21
14 23
15 17
15 18
15 19
15 21
15 22
15 23
15 25
16 20
16 22
16 23
16 24
16 25
17 22
18 19
18 22
19 20
19 22
19 24
22 23
-1
VERTEX_DEGREE:
7.0 9.0 6.0 9.0 8.0 7.0 7.0 6.0 5.0 5.0 3.0 13.0 6.0 3.0 6.0 14.0 8.0 4.0 7.0 6.0 4.0 6.0 8.0 10.0 5.0 6.0
VERTEX_COVER:
1 2 4 5 6 9 11 12 13 15 18 20 21 22 23 24 25
EOF
